17-18 10-17 4-5 11-13 1-16 10-14 5-12 1-14 12-13 4-21 8-19 6-7 2-11 3-20 15-18 6-20 9-19 7-21 0-2 3-16 8-15 0-9 602
17-18 10-17 4-5 11-13 1-16 10-14 5-12 1-14 12-13 4-21 8-19 6-7 2-11 3-20 15-18 6-20 9-19 9-21 7-15 0-2 0-16 3-8 637
